BAYES
10
2 2 2 2 2 2 2 2 2 2
10
1 0
1 1
1 2
1 3
1 4
1 5
1 6
1 7
1 8
5 5 6 7 8 9

2
 0.427 0.573
2
 0.612 0.388
2
 0.314 0.686
2
 0.497 0.503
2
 0.427 0.573
2
 0.612 0.388
2
 0.314 0.686
2
 0.497 0.503
2
 0.132 0.427
32
 0.424 0.576
 0.568 0.432
 0.552 0.448
 0.663 0.337
 0.424 0.576
 0.568 0.432
 0.552 0.448
 0.663 0.337
 0.424 0.576
 0.568 0.432
 0.552 0.448
 0.663 0.337
 0.424 0.576
 0.568 0.432
 0.552 0.448
 0.663 0.337